NAME: PointSet_Angle_15_5
TYPE: TSP
COMMENT: Points chosen discrete uniformly at random out of ${0, \ldots, 500}^2$.
DIMENSION: 15
EDGE_WEIGHT_TYPE: EUC_2D
NODE_COORD_SECTION
1 383 326
2 386 414
3 445 269
4 499 464
5 249 426
6 161 200
7 493 78
8 313 398
9 164 268
10 305 155
11 250 365
12 35 217
13 330 421
14 252 94
15 245 431
EOF
